\* Problem: Unknown *\

Maximize
 obj: + xp_0_0 + xp_0_1 + xp_1_0 + xp_2_0 + xp_2_1 + xp_3_0 + xp_3_1
 + xp_4_0 + xp_5_0 + xp_6_0 + xp_6_1 + xp_7_0 + xp_8_0 + xp_9_0
 + xp_10_0 + xp_10_1 + xp_11_0 + xp_12_0 + xp_12_1 + xp_13_0 + xp_14_0
 + xp_15_0 + xp_15_1 + xp_16_0 + xp_17_0 + xp_17_1 + xp_17_2 + xp_18_0
 + xp_18_1 + xp_19_0 + xp_20_0 + xp_21_0 + xp_21_1 + xp_21_2 + xp_21_3
 + xp_22_0 + xp_22_1 + xp_22_2 + xp_23_0 + xp_24_0 + xp_24_1 + xp_24_2
 + xp_25_0 + xp_26_0 + xp_27_0 + xp_28_0 + xp_28_1 + xp_29_0 + xp_29_1
 + xp_30_0 + xp_31_0 + xp_31_1 + xp_32_0 + xp_33_0 + xp_34_0 + xp_35_0
 + xp_36_0 + xp_37_0 + xp_38_0 + xp_38_1 + xp_39_0 + xp_40_0 + xp_40_1
 + xp_41_0 + xp_42_0 + xp_42_1 + xp_42_2 + xp_43_0 + xp_44_0 + xp_45_0
 + xp_46_0 + xp_47_0 + xp_48_0 + xp_48_1 + xp_49_0 + xp_50_0 + xp_51_0
 + xp_52_0 + xp_52_1 + xp_53_0 + xp_54_0 + xp_55_0 + xp_56_0 + xp_57_0
 + xp_58_0 + xp_58_1 + xp_59_0 + xp_60_0 + xp_60_1 + xp_61_0 + xp_62_0
 + xp_63_0 + xp_63_1 + xp_64_0 + xp_65_0

Subject To
 r_1: + xp_53_0 + xp_51_0 + xp_42_1 + xp_40_0 + xp_35_0 + xp_33_0
 <= 152.393669634026
 r_2: + xp_58_1 + xp_24_2 + xp_15_1 <= 155
 r_3: + xp_56_0 + xp_21_0 + xp_12_0 <= 155
 r_4: + xp_65_0 + xp_50_0 + xp_45_0 + xp_24_1 + xp_24_0 + xp_21_3
 + xp_15_0 + xp_10_1 + xp_10_0 + xp_5_0 + xp_2_1 <= 140.768902785674
 r_5: + xp_52_1 + xp_38_1 + xp_31_1 + xp_17_0 + xp_14_0
 <= 140.768902785674
 r_6: + xp_22_1 + xp_22_0 + xp_21_2 + xp_17_2 + xp_13_0 + xp_12_1
 + xp_3_1 + xp_3_0 + xp_2_0 <= 150.204731574158
 r_7: + xp_60_1 + xp_48_1 + xp_46_0 + xp_42_2 + xp_42_0 + xp_40_1
 + xp_0_0 <= 150.204731574158
 r_8: 0 xp_0_0 <= 151.25355450237
 r_9: + xp_64_0 + xp_63_1 + xp_29_1 + xp_25_0 + xp_24_2 + xp_21_0
 + xp_6_0 <= 152.393669634026
 r_10: + xp_63_0 <= 148.340353833193
 r_11: + xp_60_0 + xp_38_0 + xp_31_0 <= 155
 r_12: + xp_62_0 + xp_61_0 + xp_60_1 + xp_22_2 + xp_21_1
 <= 150.204731574158
 r_13: + xp_64_0 + xp_59_0 + xp_58_1 + xp_56_0 + xp_29_1 + xp_29_0
 + xp_24_2 + xp_21_0 + xp_20_0 + xp_15_1 + xp_12_0 <= 152.393669634026
 r_14: + xp_57_0 + xp_53_0 + xp_42_2 + xp_42_1 + xp_35_0 + xp_18_0
 <= 152.393669634026
 r_15: + xp_63_1 + xp_58_0 <= 150.204731574158
 r_16: + xp_65_0 + xp_55_0 + xp_53_0 + xp_51_0 + xp_50_0 + xp_10_1
 + xp_10_0 <= 155
 r_17: + xp_58_1 + xp_54_0 + xp_52_1 + xp_36_0 + xp_31_1
 <= 140.768902785674
 r_18: + xp_52_0 + xp_21_3 + xp_2_1 <= 155
 r_19: + xp_60_0 + xp_48_0 <= 151.25355450237
 r_20: + xp_50_0 + xp_49_0 + xp_48_1 + xp_46_0 + xp_45_0 + xp_22_1
 + xp_10_1 + xp_3_1 <= 140.768902785674
 r_21: + xp_52_1 + xp_47_0 + xp_26_0 + xp_22_2 + xp_21_1 + xp_17_1
 + xp_17_0 + xp_7_0 <= 155
 r_22: + xp_61_0 + xp_60_1 + xp_43_0 + xp_42_2 + xp_42_0 + xp_40_1
 + xp_38_1 <= 150.204731574158
 r_23: + xp_56_0 + xp_52_0 + xp_41_0 + xp_38_0 + xp_34_0 + xp_31_0
 + xp_17_2 <= 150.204731574158
 r_24: + xp_62_0 + xp_44_0 + xp_42_1 + xp_40_0 + xp_39_0 + xp_21_2
 + xp_21_1 + xp_12_1 + xp_2_0 <= 150.204731574158
 r_25: + xp_62_0 + xp_44_0 + xp_42_1 + xp_40_0 + xp_37_0 + xp_35_0
 + xp_33_0 <= 155
 r_26: + xp_39_0 + xp_36_0 + xp_32_0 + xp_31_1 <= 155
 r_27: + xp_56_0 + xp_52_0 + xp_34_0 + xp_31_0 + xp_30_0
 <= 150.204731574158
 r_28: + xp_60_1 + xp_60_0 + xp_48_1 + xp_48_0 + xp_42_0 + xp_29_1
 + xp_27_0 + xp_25_0 + xp_24_2 + xp_21_0 + xp_18_1 + xp_8_0 + xp_6_0
 <= 148.340353833193
 r_29: + xp_29_0 + xp_28_0 + xp_24_1 + xp_22_0 + xp_6_1 + xp_0_1
 <= 150.204731574158
 r_30: + xp_63_0 + xp_28_1 + xp_26_0 + xp_24_0 + xp_23_0 + xp_22_2
 + xp_22_1 + xp_21_3 + xp_21_2 + xp_21_1 + xp_17_1 <= 151.25355450237
 r_31: + xp_63_1 + xp_58_0 + xp_28_0 + xp_24_1 + xp_22_0 + xp_19_0
 + xp_17_2 + xp_17_0 + xp_15_0 + xp_14_0 + xp_13_0 + xp_12_1
 <= 150.204731574158
 r_32: + xp_46_0 + xp_42_2 + xp_40_1 + xp_29_0 + xp_20_0 + xp_18_0
 + xp_16_0 + xp_15_1 + xp_12_0 + xp_6_1 <= 150.204731574158
 r_33: + xp_60_1 + xp_48_1 + xp_42_0 + xp_18_1 + xp_17_1 + xp_11_0
 <= 150.204731574158
 r_34: + xp_26_0 + xp_23_0 + xp_22_2 + xp_22_1 + xp_21_1 + xp_17_1
 + xp_10_1 + xp_7_0 + xp_4_0 + xp_3_1 <= 151.25355450237
 r_35: + xp_60_0 + xp_48_0 + xp_8_0 + xp_6_1 + xp_6_0 + xp_1_0 + xp_0_1
 <= 151.25355450237
 r_36: + xp_63_0 + xp_28_1 + xp_24_0 + xp_21_3 + xp_21_2 + xp_10_0
 + xp_9_0 + xp_5_0 + xp_3_0 + xp_2_1 + xp_2_0 + xp_0_0
 <= 151.25355450237

Bounds
 0 <= xp_0_0 <= 13.5538116591928
 0 <= xp_0_1 <= 13.5538116591928
 0 <= xp_1_0 <= 21.9641255605381
 0 <= xp_2_0 <= 18.1412556053812
 0 <= xp_2_1 <= 6.04708520179372
 0 <= xp_3_0 <= 10.530269058296
 0 <= xp_3_1 <= 3.51008968609865
 0 <= xp_4_0 <= 27.52466367713
 0 <= xp_5_0 <= 21.9641255605381
 0 <= xp_6_0 <= 6.32511210762332
 0 <= xp_6_1 <= 18.97533632287
 0 <= xp_7_0 <= 21.4080717488789
 0 <= xp_8_0 <= 24.3273542600897
 0 <= xp_9_0 <= 16.9596412556054
 0 <= xp_10_0 <= 7.9237668161435
 0 <= xp_10_1 <= 7.9237668161435
 0 <= xp_11_0 <= 24.8834080717489
 0 <= xp_12_0 <= 12.1984304932735
 0 <= xp_12_1 <= 4.06614349775785
 0 <= xp_13_0 <= 14.5964125560538
 0 <= xp_14_0 <= 22.1031390134529
 0 <= xp_15_0 <= 13.762331838565
 0 <= xp_15_1 <= 13.762331838565
 0 <= xp_16_0 <= 26.2735426008969
 0 <= xp_17_0 <= 11.5381165919283
 0 <= xp_17_1 <= 5.76905829596413
 0 <= xp_17_2 <= 5.76905829596413
 0 <= xp_18_0 <= 4.93497757847534
 0 <= xp_18_1 <= 14.804932735426
 0 <= xp_19_0 <= 19.0448430493274
 0 <= xp_20_0 <= 22.6591928251121
 0 <= xp_21_0 <= 4.55269058295964
 0 <= xp_21_1 <= 4.55269058295964
 0 <= xp_21_2 <= 4.55269058295964
 0 <= xp_21_3 <= 4.55269058295964
 0 <= xp_22_0 <= 5.52578475336323
 0 <= xp_22_1 <= 5.52578475336323
 0 <= xp_22_2 <= 11.0515695067265
 0 <= xp_23_0 <= 22.7982062780269
 0 <= xp_24_0 <= 8.89686098654708
 0 <= xp_24_1 <= 4.44843049327354
 0 <= xp_24_2 <= 4.44843049327354
 0 <= xp_25_0 <= 27.1076233183856
 0 <= xp_26_0 <= 18.0717488789238
 0 <= xp_27_0 <= 14.5964125560538
 0 <= xp_28_0 <= 18.0369955156951
 0 <= xp_28_1 <= 6.01233183856502
 0 <= xp_29_0 <= 16.3688340807175
 0 <= xp_29_1 <= 5.45627802690583
 0 <= xp_30_0 <= 26.9686098654708
 0 <= xp_31_0 <= 4.34417040358744
 0 <= xp_31_1 <= 13.0325112107623
 0 <= xp_32_0 <= 15.2914798206278
 0 <= xp_33_0 <= 18.3497757847534
 0 <= xp_34_0 <= 22.1031390134529
 0 <= xp_35_0 <= 15.152466367713
 0 <= xp_36_0 <= 17.5156950672646
 0 <= xp_37_0 <= 13.9013452914798
 0 <= xp_38_0 <= 8.61883408071749
 0 <= xp_38_1 <= 8.61883408071749
 0 <= xp_39_0 <= 14.7354260089686
 0 <= xp_40_0 <= 14.1793721973094
 0 <= xp_40_1 <= 4.72645739910314
 0 <= xp_41_0 <= 20.0179372197309
 0 <= xp_42_0 <= 5.83856502242152
 0 <= xp_42_1 <= 11.677130044843
 0 <= xp_42_2 <= 5.83856502242152
 0 <= xp_43_0 <= 16.542600896861
 0 <= xp_44_0 <= 17.6547085201794
 0 <= xp_45_0 <= 14.5964125560538
 0 <= xp_46_0 <= 20.4349775784753
 0 <= xp_47_0 <= 19.4618834080717
 0 <= xp_48_0 <= 20.6434977578475
 0 <= xp_48_1 <= 6.88116591928251
 0 <= xp_49_0 <= 14.457399103139
 0 <= xp_50_0 <= 15.7085201793722
 0 <= xp_51_0 <= 23.4932735426009
 0 <= xp_52_0 <= 19.4966367713004
 0 <= xp_52_1 <= 6.49887892376682
 0 <= xp_53_0 <= 27.2466367713004
 0 <= xp_54_0 <= 26.8295964125561
 0 <= xp_55_0 <= 20.9910313901345
 0 <= xp_56_0 <= 14.7354260089686
 0 <= xp_57_0 <= 17.3766816143498
 0 <= xp_58_0 <= 20.2264573991031
 0 <= xp_58_1 <= 6.74215246636771
 0 <= xp_59_0 <= 26.9686098654708
 0 <= xp_60_0 <= 8.54932735426009
 0 <= xp_60_1 <= 8.54932735426009
 0 <= xp_61_0 <= 25.1614349775785
 0 <= xp_62_0 <= 26.8295964125561
 0 <= xp_63_0 <= 18.8710762331839
 0 <= xp_63_1 <= 6.29035874439462
 0 <= xp_64_0 <= 27.1076233183856
 0 <= xp_65_0 <= 19.6008968609865

End
